NAME          
ROWS
 N  OBJ
 L  c1
COLUMNS
    MARKER    'MARKER'                 'INTORG'
    x[1]      c1        440
    x[1]      OBJ       -691
    x[2]      c1        561
    x[2]      OBJ       -798
    x[3]      c1        635
    x[3]      OBJ       -643
    x[4]      c1        654
    x[4]      OBJ       -331
    x[5]      c1        242
    x[5]      OBJ       -747
    x[6]      c1        188
    x[6]      OBJ       -930
    x[7]      c1        917
    x[7]      OBJ       -417
    x[8]      c1        332
    x[8]      OBJ       -398
    x[9]      c1        809
    x[9]      OBJ       -161
    x[10]     c1        174
    x[10]     OBJ       -488
    x[11]     c1        806
    x[11]     OBJ       -84
    x[12]     c1        310
    x[12]     OBJ       -179
    x[13]     c1        672
    x[13]     OBJ       -397
    x[14]     c1        600
    x[14]     OBJ       -887
    x[15]     c1        363
    x[15]     OBJ       -65
    x[16]     c1        20
    x[16]     OBJ       -191
    x[17]     c1        26
    x[17]     OBJ       -712
    x[18]     c1        494
    x[18]     OBJ       -369
    x[19]     c1        401
    x[19]     OBJ       -396
    x[20]     c1        927
    x[20]     OBJ       -210
RHS
    rhs       c1        4786
RANGES
BOUNDS
 BV bounds    x[1]
 BV bounds    x[2]
 BV bounds    x[3]
 BV bounds    x[4]
 BV bounds    x[5]
 BV bounds    x[6]
 BV bounds    x[7]
 BV bounds    x[8]
 BV bounds    x[9]
 BV bounds    x[10]
 BV bounds    x[11]
 BV bounds    x[12]
 BV bounds    x[13]
 BV bounds    x[14]
 BV bounds    x[15]
 BV bounds    x[16]
 BV bounds    x[17]
 BV bounds    x[18]
 BV bounds    x[19]
 BV bounds    x[20]
ENDATA
